Solver command line: ['C:\\Program Files\\IBM\\ILOG\\CPLEX_Studio2211\\cplex\\bin\\x64_win64\\cplex.exe']


Welcome to IBM(R) ILOG(R) CPLEX(R) Interactive Optimizer 22.1.1.0
  with Simplex, Mixed Integer & Barrier Optimizers
5725-A06 5725-A29 5724-Y48 5724-Y49 5724-Y54 5724-Y55 5655-Y21
Copyright IBM Corp. 1988, 2022.  All Rights Reserved.

Type 'help' for a list of available commands.
Type 'help' followed by a command name for more
information on commands.

CPLEX> Logfile 'cplex.log' closed.
Logfile 'C:\Users\wangy\Documents\GitHub\re_optimization\result_site_specific\tmpcxp95yvk.cplex.log' open.
CPLEX> Problem 'C:\Users\wangy\Documents\GitHub\re_optimization\result_site_specific\tmpli09sex1.pyomo.lp' read.
Read time = 0.31 sec. (9.13 ticks)
CPLEX> Problem name         : C:\Users\wangy\Documents\GitHub\re_optimization\result_site_specific\tmpli09sex1.pyomo.lp
Objective sense      : Minimize
Variables            :   65769  [Nneg: 35068,  Free: 8792,  Binary: 9,
                                 Other: 21900]
Objective nonzeros   :      17
Linear constraints   :   87665  [Less: 46741,  Greater: 5,  Equal: 40919]
  Nonzeros           :  225077
  RHS nonzeros       :    3737

Variables            : Min LB: 0.000000         Max UB: 1.000000       
Objective nonzeros   : Min   : 1.000000         Max   : 1.000000       
Linear constraints   :
  Nonzeros           : Min   : 0.002158707      Max   : 100000.0       
  RHS nonzeros       : Min   : 0.1130000        Max   : 100000.0       
CPLEX> Version identifier: 22.1.1.0 | 2022-11-27 | 9160aff4d
Tried aggregator 3 times.
MIP Presolve eliminated 52790 rows and 32348 columns.
Aggregator did 10266 substitutions.
Reduced MIP has 24609 rows, 23155 columns, and 73684 nonzeros.
Reduced MIP has 5 binaries, 0 generals, 0 SOSs, and 0 indicators.
Presolve time = 0.22 sec. (225.37 ticks)
Found incumbent of value 299130.165832 after 0.30 sec. (331.43 ticks)
Probing time = 0.02 sec. (1.39 ticks)
Tried aggregator 1 time.
Detecting symmetries...
Reduced MIP has 24609 rows, 23155 columns, and 73684 nonzeros.
Reduced MIP has 5 binaries, 0 generals, 0 SOSs, and 0 indicators.
Presolve time = 0.05 sec. (47.09 ticks)
Probing time = 0.00 sec. (1.27 ticks)
MIP emphasis: balance optimality and feasibility.
MIP search method: dynamic search.
Parallel mode: deterministic, using up to 16 threads.
Root relaxation solution time = 1.22 sec. (832.72 ticks)

        Nodes                                         Cuts/
   Node  Left     Objective  IInf  Best Integer    Best Bound    ItCnt     Gap

*     0+    0                       299130.1658   -11292.6740           103.78%
      0     0     9000.1378     1   299130.1658     9000.1378       60   96.99%
*     0+    0                        10604.8252     9000.1378            15.13%
*     0+    0                         9532.2594     9000.1378             5.58%
      0     0        cutoff           9532.2594                    634    0.00%
Elapsed time = 1.91 sec. (1695.01 ticks, tree = 0.01 MB, solutions = 3)

Root node processing (before b&c):
  Real time             =    1.91 sec. (1698.20 ticks)
Parallel b&c, 16 threads:
  Real time             =    0.00 sec. (0.00 ticks)
  Sync time (average)   =    0.00 sec.
  Wait time (average)   =    0.00 sec.
                          ------------
Total (root+branch&cut) =    1.91 sec. (1698.20 ticks)

Solution pool: 3 solutions saved.

MIP - Integer optimal solution:  Objective =  9.5322593815e+03
Solution time =    1.91 sec.  Iterations = 634  Nodes = 0
Deterministic time = 1698.39 ticks  (890.61 ticks/sec)

CPLEX> Incumbent solution written to file 'C:\Users\wangy\Documents\GitHub\re_optimization\result_site_specific\tmpjxn23jx_.cplex.sol'.
CPLEX> 
